NAME: Unidireccional.tsp
TYPE: TSP
DIMENSION: 10
SOLUTION: 1533
TOUR_SECTION
9,6,8,1,4,7,5,2,10,3,9
28 - 9,6
72 - 6,8
48 - 8,1
94 - 1,4
160 - 4,7
53 - 7,5
141 - 5,2
126 - 2,10
478 - 10,3
333 - 3,9
EOF